ssat_solver_solve2
#level: 2
Abc_NtkNodeNum(s->pNtk): 58  , BDD limit: 10240
Build BDD success
level 1: 5 element
Exist
level 0: 5 element
Random
c ssat solving in ABC
#var: 10
s SATISFIABLE
  > Upper bound = 4.375000e-01
  > Lower bound = 4.375000e-01
FINISHED CPU 0.07 MEM 59296 MAXMEM 59296 STALE 0 MAXMEM_RSS 0
<time name="ALL">110</time>
real 0.27
user 0.16
sys 0.14
